unknown
(model
; cardinality of BoundSet is 3
(declare-sort BoundSet 0)
; rep: @uc_BoundSet_0
; rep: @uc_BoundSet_1
; rep: @uc_BoundSet_2
; cardinality of UnboundSet is 1
(declare-sort UnboundSet 0)
(declare-fun groundTerm_4 () UnboundSet)
(define-fun IsSittingOn ((BOUND_VARIABLE_497 BoundSet) (BOUND_VARIABLE_498 BoundSet)) Bool true)
(define-fun IsInFrontOf ((BOUND_VARIABLE_497 BoundSet) (BOUND_VARIABLE_498 BoundSet)) Bool true)
(define-fun IsSeatedOn ((BOUND_VARIABLE_497 BoundSet) (BOUND_VARIABLE_498 BoundSet)) Bool true)
(define-fun IsOutside ((BOUND_VARIABLE_506 BoundSet)) Bool false)
)
sat
(model
; cardinality of BoundSet is 1
(declare-sort BoundSet 0)
; rep: @uc_BoundSet_0
; cardinality of UnboundSet is 1
(declare-sort UnboundSet 0)
(declare-fun groundTerm_8 () UnboundSet)
(define-fun IsSittingOn ((BOUND_VARIABLE_520 BoundSet) (BOUND_VARIABLE_521 BoundSet)) Bool true)
(define-fun IsInFrontOf ((BOUND_VARIABLE_520 BoundSet) (BOUND_VARIABLE_521 BoundSet)) Bool true)
(define-fun IsSeatedOn ((BOUND_VARIABLE_520 BoundSet) (BOUND_VARIABLE_521 BoundSet)) Bool true)
(define-fun IsOutside ((BOUND_VARIABLE_529 BoundSet)) Bool false)
)
